
Route #1: 4 54 23 48 50 44 24 52 8 
Route #2: 32 40 16 39 38 47 35 36 1 
Route #3: 26 42 31 37 33 34 
Route #4: 5 53 9 49 6 10 
Route #5: 7 51 15 11 46 
Route #6: 27 28 30 25 41 29 
Route #7: 21 45 43 
Route #8: 2 3 14 17 20 18 
Route #9: 19 13 22 12 
cost 1631.32
total time is 6.1